(declare-rel inv ( Int Int ))
(declare-var x Int)
(declare-var x1 Int)
(declare-var y Int)
(declare-var y1 Int)

(rule (inv x y))

(rule (=> (and (inv x y)
        (not (= x 0))
        (= y1 (- y 1))
        (= x1 (ite (< x 10) (+ x 1) y1)))
    (inv x1 y1)
    )
)
